(set-info :smt-lib-version 2.5)
(set-info :license |https://www.gnu.org/licenses/gpl-3.0.html|)
(set-logic QF_FPNIRA)
(set-info :source |Benchmarks generated from industrial code by Florian Schanda using SPARK 2014 and an SMTLIB Obfuscation Script|)
(set-info :category industrial)
(set-info :status unknown)

(define-fun spoon_1 ((kitten_1 Float32)) Bool (not (or (fp.isInfinite kitten_1) (fp.isNaN kitten_1))))
(define-fun spoon_2 ((kitten_2 Float32)) Bool (and (fp.isInfinite kitten_2) (fp.isPositive kitten_2)))
(define-fun spoon_3 ((kitten_3 Float32)) Bool (and (fp.isInfinite kitten_3) (fp.isNegative kitten_3)))
(define-fun spoon_4 ((kitten_4 Float32)) Bool (and (fp.isZero kitten_4) (fp.isPositive kitten_4)))
(define-fun spoon_5 ((kitten_5 Float32)) Bool (and (fp.isZero kitten_5) (fp.isNegative kitten_5)))
(declare-const cat_6 Int)
(define-fun spoon_7 ((kitten_6 Int)) Bool (and (<= (- cat_6) kitten_6) (<= kitten_6 cat_6)))
(define-fun spoon_8 ((kitten_7 Int)) Bool (and (<= (- 16777216) kitten_7) (<= kitten_7 16777216)))
(define-fun spoon_9 ((kitten_8 Float32) (kitten_9 Float32)) Bool (or (and (fp.isPositive kitten_8) (fp.isPositive kitten_9)) (and (fp.isNegative kitten_8) (fp.isNegative kitten_9))))
(define-fun spoon_10 ((kitten_10 Float32) (kitten_11 Float32)) Bool (or (and (fp.isPositive kitten_10) (fp.isNegative kitten_11)) (and (fp.isNegative kitten_10) (fp.isPositive kitten_11))))
(define-fun spoon_11 ((kitten_12 Float32) (kitten_13 Float32) (kitten_14 Float32)) Bool (and (=> (spoon_9 kitten_13 kitten_14) (fp.isPositive kitten_12)) (=> (spoon_10 kitten_13 kitten_14) (fp.isNegative kitten_12))))
(define-fun spoon_12 ((kitten_15 Real)) Real (* kitten_15 kitten_15))
(define-fun spoon_13 ((kitten_16 Float32) (kitten_17 Real)) Bool (or (and (fp.isPositive kitten_16) (< 0.0 kitten_17)) (and (fp.isNegative kitten_16) (< kitten_17 0.0))))
(define-fun spoon_14 ((kitten_18 Bool)) Int (ite (= kitten_18 true) 1 0))
(define-fun spoon_15 ((kitten_19 Int)) Bool (ite (= kitten_19 0) false true))
(define-fun spoon_16 ((kitten_20 Int)) Bool (or (= kitten_20 0) (= kitten_20 1)))
(define-fun spoon_17 ((kitten_21 Float32)) Bool (and (spoon_1 kitten_21) (and (fp.leq (fp.neg (fp #b0 #b10001011 #b00000000000000000000000)) kitten_21) (fp.leq kitten_21 (fp #b0 #b10001011 #b00000000000000000000000)))))
(declare-const cat_18 Int)
(declare-const cat_19 Int)
(assert (<= 0 cat_18))
(assert (<= 0 cat_19))
(declare-const cat_20 Int)
(declare-const cat_21 Int)
(declare-const cat_22 Int)
(assert (<= 0 cat_20))
(assert (< cat_20 cat_21))
(assert (<= 0 cat_22))
(declare-const cat_23 Int)
(declare-const cat_24 Int)
(declare-const cat_25 Int)
(assert (<= 0 cat_23))
(assert (< cat_23 cat_24))
(assert (<= 0 cat_25))
(define-fun spoon_26 ((kitten_22 Float32)) Bool (and (spoon_1 kitten_22) (and (fp.leq (fp #b0 #b00000000 #b00000000000000000000000) kitten_22) (fp.leq kitten_22 (fp #b0 #b10001100 #b01101010100000000000000)))))
(define-fun spoon_27 ((kitten_23 Float32) (kitten_24 Bool) (kitten_25 Bool) (kitten_26 Bool)) Bool (=> (or (= kitten_24 true) (fp.leq (fp #b0 #b00000000 #b00000000000000000000000) (fp #b0 #b10001100 #b01101010100000000000000))) (spoon_26 kitten_23)))
(define-fun spoon_28 ((kitten_27 Float32)) Bool (and (spoon_1 kitten_27) (and (fp.leq (fp.neg (fp #b0 #b10001100 #b00000000000000000000000)) kitten_27) (fp.leq kitten_27 (fp #b0 #b10001100 #b00000000000000000000000)))))
(declare-const cat_29 Int)
(declare-const cat_30 Int)
(declare-const cat_31 Int)
(declare-const cat_32 Int)
(declare-const cat_33 Int)
(assert (<= 0 cat_32))
(assert (<= 0 cat_33))
(declare-const cat_34 Int)
(declare-const cat_35 Int)
(declare-const cat_36 Int)
(assert (<= 0 cat_34))
(assert (< cat_34 cat_35))
(assert (<= 0 cat_36))
(declare-const cat_37 Int)
(declare-const cat_38 Int)
(declare-const cat_39 Int)
(assert (<= 0 cat_37))
(assert (< cat_37 cat_38))
(assert (<= 0 cat_39))
(declare-const cat_40 Int)
(declare-const cat_41 Int)
(declare-const cat_42 Int)
(declare-const cat_43 Int)
(declare-const cat_44 Int)
(declare-const cat_45 Int)
(declare-const cat_46 Int)
(declare-const cat_47 Int)
(define-fun spoon_48 ((kitten_28 Float32) (kitten_29 Bool) (kitten_30 Bool) (kitten_31 Bool)) Bool (=> (or (= kitten_29 true) (fp.leq (fp.neg (fp #b0 #b11111110 #b11111111111111111111111)) (fp #b0 #b11111110 #b11111111111111111111111))) (spoon_1 kitten_28)))
(define-fun spoon_49 ((kitten_32 Float32) (kitten_33 Bool) (kitten_34 Bool) (kitten_35 Bool)) Bool (=> (or (= kitten_33 true) (fp.leq (fp.neg (fp #b0 #b10001100 #b00000000000000000000000)) (fp #b0 #b10001100 #b00000000000000000000000))) (spoon_28 kitten_32)))
(define-fun spoon_50 ((kitten_36 Float32) (kitten_37 Bool) (kitten_38 Bool) (kitten_39 Bool)) Bool (=> (or (= kitten_37 true) (fp.leq (fp.neg (fp #b0 #b10001011 #b00000000000000000000000)) (fp #b0 #b10001011 #b00000000000000000000000))) (spoon_17 kitten_36)))
(declare-const cat_51 Float32)
(declare-const cat_52 Float32)
(declare-const cat_53 Float32)
(declare-const cat_54 Float32)
(declare-const cat_55 Float32)
(declare-const cat_56 Float32)
(declare-const cat_57 Float32)
(declare-const cat_58 Float32)
(declare-const cat_59 Float32)
(declare-const cat_60 Float32)
(declare-const cat_61 Float32)
(declare-const cat_62 Float32)
(declare-const cat_63 Float32)
(declare-const cat_64 Float32)
(declare-const cat_65 Float32)
(declare-const cat_66 Float32)
(declare-const cat_67 Float32)
(declare-const cat_68 Float32)
(declare-const cat_69 Float32)
(declare-const cat_70 Float32)
(declare-const cat_71 Float32)
(declare-const cat_72 Float32)
(assert (spoon_26 cat_51))
(assert (spoon_26 cat_52))
(assert (and (fp.lt (fp #b0 #b01110101 #b00000110001001001101111) cat_51) (fp.lt (fp #b0 #b01110101 #b00000110001001001101111) cat_52)))
(assert (fp.lt cat_52 cat_51))
(assert (= cat_58 (fp.mul RNE cat_57 cat_52)))
(assert (not (spoon_1 cat_58)))
(check-sat)
